NAME : cluster_netgen
COMMENT : cl=7
TYPE : TSP
DIMENSION : 50
EDGE_WEIGHT_TYPE : EUC_2D
NODE_COORD_SECTION
1 306105 182981
2 227721 57921
3 313916 139668
4 256658 76254
5 126267 100555
6 221123 50580
7 175733 55683
8 492162 587637
9 622165 503859
10 600852 549296
11 527411 566040
12 497785 628761
13 506275 588731
14 526263 583597
15 868306 815603
16 861196 686373
17 865382 808881
18 708667 695647
19 873594 662870
20 860372 690567
21 831974 726576
22 668251 142985
23 620696 248254
24 614421 130200
25 654600 161100
26 688437 357465
27 657510 132671
28 657476 95959
29 596910 138845
30 509583 470086
31 524972 393038
32 339201 501941
33 427997 525192
34 378266 469378
35 382654 431068
36 431433 519286
37 36460 939579
38 98192 955065
39 125861 923844
40 118812 985992
41 81592 982094
42 105876 958333
43 139877 979347
44 999598 227836
45 963093 292632
46 928538 284980
47 907136 242379
48 952590 292631
49 964184 254586
50 962917 291765

EOF
